Route #1: 20 21 22 25 27 24 29 30 28 26 23
Route #2: 67 65 63 62 74 72 61 64 68 69 66
Route #3: 43 42 41 40 44 45 46 48 51 50 52 49 47
Route #4: 10 11 9 8 7 5 3 4 6 2 1 75
Route #5: 32 33 31 35 37 38 39 36 34
Route #6: 99 100 97 93 92 94 95 96 98 91
Route #7: 90 89 88 85 84 83 82 86 87
Route #8: 12 14 16 15 19 18 17 13
Route #9: 57 59 55 54 53 56 58 60
Route #10: 80 79 77 73 70 71 76 78 81
cost: 842.8495332457057
